Route #1: 1 1 49 24 3 72 26 67 35 8 13 30 4 75 51 16 33 1 
Route #2: 1 28 21 57 54 19 11 7 46 45 29 74 2 68 6 1 
Route #3: 1 73 17 12 58 38 65 31 55 18 25 9 39 40 23 42 22 62 1 
Route #4: 1 63 32 10 53 14 34 52 27 5 69 61 64 41 43 1 
Route #5: 1 48 47 36 37 71 60 70 20 15 59 66 50 44 56 1 

Cost 1018.54
Time 1.3036


 * Another infos *

 Iterations: 76 Time: 1.3036 sec - 0.0217 min - 0.0004 horas
0.0000 h 0.0217 min
Problem dimension: 76
